*Heading
CalculiX simulation for C1 — independent FEM
*Node
1,0.0,0.0,0.0
2,1.0,0.0,0.0
3,1.0,1.0,0.0
4,0.0,1.0,0.0
5,0.0,0.0,1.0
6,1.0,0.0,1.0
7,1.0,1.0,1.0
8,0.0,1.0,1.0
*Element, type=C3D8, elset=Block
1,1,2,3,4,5,6,7,8
*Material, name=Mat1
*Elastic
315000.0,0.3
*Plastic
336.00000000000006,0.0
672.0000000000001,0.1
*Solid Section, elset=Block, material=Mat1
1.0,
*Boundary
1,1,3
2,2
3,2
4,1,2
5,1,2
*Step
*Static
1.0,1.0
*Boundary
6,3,3,0.01
7,3,3,0.01
8,3,3,0.01
*Node Print
U
*El Print
S
*End Step
